Minimize
 obj: 0
Subject to

\true constraints
   72 X1
 +    78 X2
 +    69 X3
 +    96 X4
 +    78 X5
< 196.500000

\multiple objectives
 -  88 X1
 -    77 X2
 -    79 X3
 -    70 X4
 -    99 X5
< 1
 -  70 X1
 -    84 X2
 -    89 X3
 -    73 X4
 -    89 X5
< 2
 -  93 X1
 -    75 X2
 -   100 X3
 -    60 X4
 -    80 X5
< 3
 -  88 X1
 -    75 X2
 -    65 X3
 -    89 X4
 -    93 X5
< 4
 -  72 X1
 -    89 X2
 -    65 X3
 -    76 X4
 -    64 X5
< 5
 -  88 X1
 -    74 X2
 -    92 X3
 -    88 X4
 -    92 X5
< 6

BINARY
X1
X2
X3
X4
X5
END
